Route #1: 29 128 84 35 85 36 115 121 116 28 70 20 59 3
Route #2: 133 25 95 13 67 134 111 135 141 150 87 148 143
Route #3: 75 105 39 89 117 73 106 125 33 72 91 45 15
Route #4: 52 107 65 93 66 41 136 40 88 94 19 64 42 92
Route #5: 126 118 50 130 71 122 124 123 10 54 30 104 9
Route #6: 16 127 53 129 21 79 74 34 83 131 101 2 51
Route #7: 27 138 48 112 60 8 26 113 140 31 82 80 22 120 1 119
Route #8: 37 44 137 147 109 142 4 149 55 18 110 56
Route #9: 14 58 96 24 97 86 43 99 114 61 7 69 23 57 46
Route #10: 12 63 17 145 146 144 47 139
Route #11: 103 5 90 108 76 49 62 38 78
Route #12: 11 100 32 81 6 98 132 68 102 77
Cost 1122.6319193754227